# Solution for model r5_t18_m1_6
# Finished Task: 18 / 18
# Makespan: 524.0, Total Distance: 331.0, Total Time: 123.8193
# R O S F
0 0 20 49.0 49.0
1 1 22 2.0 2.0
2 2 7 11.0 11.0
3 3 17 0.0 0.0
4 4 12 20.0 20.0
5 0 -1 453.0 492.0
6 1 14 386.0 406.0
7 2 10 388.0 413.0
8 4 15 441.0 469.0
9 1 -1 492.0 524.0
10 2 16 427.0 454.0
11 3 -1 491.0 524.0
12 4 8 366.0 401.0
13 0 19 319.0 341.0
14 1 9 454.0 482.0
15 4 -1 469.0 494.0
16 2 -1 454.0 480.0
17 3 11 406.0 427.0
18 0 13 273.0 309.0
19 0 5 405.0 435.0
20 0 18 249.0 273.0
21 1 6 345.0 366.0
22 1 21 309.0 331.0
